# Solution for model r3_t9_m8_3 Batch Number: 1
# Finished Task: 8 / 9
# Makespan: 540.0, Total Distance: 238.0, Total Time: 1.0529
# R O S F Batch
0 0 8 0.0 0.0 -1
1 1 4 0.0 0.0 -1
2 2 9 0.0 0.0 -1
3 0 10 341.0 380.0 0
4 1 -1 446.0 469.0 0
5 2 11 456.0 484.0 0
6 -1 -1 -1.0 -1.0 0
7 2 5 381.0 409.0 0
8 0 3 242.0 279.0 0
9 2 7 354.0 381.0 0
10 0 -1 409.0 446.0 0
11 2 -1 514.0 540.0 0
